50
1000
396
395
394
391
389
388
382
381
380
379
376
371
366
366
365
364
359
356
353
348
346
345
343
336
335
335
327
325
320
320
320
308
306
302
299
297
295
294
290
286
285
283
281
280
277
275
272
270
269
269
